NAME: eil101
TYPE: TOUR
DIMENSION: 101
TOUR_SECTION
1
50
76
77
68
29
24
80
12
26
40
21
73
72
74
75
56
4
55
54
25
39
67
23
22
41
58
13
94
95
92
97
87
42
2
57
15
43
59
99
96
93
85
61
5
84
17
60
18
52
83
8
46
82
48
47
36
49
64
7
88
62
11
19
10
90
63
32
31
70
30
20
66
45
16
86
44
38
14
91
37
100
98
6
89
53
101
27
28
3
79
78
34
33
81
9
71
65
35
51
69
EOF
